VERTICES = 212
EDGES = 1621
1 2
1 4
1 14
1 16
1 54
1 56
1 66
1 68
2 3
2 13
2 15
2 53
2 55
2 65
2 67
3 6
3 10
3 14
3 18
3 22
3 54
3 58
3 62
3 66
3 70
3 74
4 5
4 10
4 13
4 17
4 22
4 53
4 57
4 62
4 65
4 69
4 74
5 8
5 11
5 16
5 20
5 23
5 56
5 60
5 63
5 68
5 72
5 75
6 7
6 11
6 15
6 19
6 23
6 55
6 59
6 63
6 67
6 71
6 75
7 9
7 12
7 18
7 21
7 24
7 58
7 61
7 64
7 70
7 73
7 76
8 9
8 12
8 17
8 21
8 24
8 57
8 61
8 64
8 69
8 73
8 76
9 10
9 11
9 12
9 19
9 20
9 22
9 23
9 24
9 59
9 60
9 62
9 63
9 64
9 71
9 72
9 74
9 75
9 76
10 11
10 12
10 15
10 16
10 21
10 23
10 24
10 55
10 56
10 61
10 63
10 64
10 67
10 68
10 73
10 75
10 76
11 12
11 17
11 18
11 21
11 22
11 24
11 57
11 58
11 61
11 62
11 64
11 69
11 70
11 73
11 74
11 76
12 19
12 20
12 21
12 22
12 23
12 59
12 60
12 61
12 62
12 63
12 71
12 72
12 73
12 74
12 75
13 26
13 28
13 50
13 54
13 56
13 78
13 80
13 102
14 25
14 27
14 50
14 53
14 55
14 77
14 79
14 102
15 26
15 30
15 34
15 50
15 54
15 58
15 62
15 78
15 82
15 86
15 102
16 25
16 29
16 34
16 50
16 53
16 57
16 62
16 77
16 81
16 86
16 102
17 28
17 32
17 35
17 50
17 56
17 60
17 63
17 80
17 84
17 87
17 102
18 27
18 31
18 35
18 50
18 55
18 59
18 63
18 79
18 83
18 87
18 102
19 30
19 33
19 36
19 50
19 58
19 61
19 64
19 82
19 85
19 88
19 102
20 29
20 33
20 36
20 50
20 57
20 61
20 64
20 81
20 85
20 88
20 102
21 31
21 32
21 34
21 35
21 36
21 50
21 59
21 60
21 62
21 63
21 64
21 83
21 84
21 86
21 87
21 88
21 102
22 27
22 28
22 33
22 35
22 36
22 50
22 55
22 56
22 61
22 63
22 64
22 79
22 80
22 85
22 87
22 88
22 102
23 29
23 30
23 33
23 34
23 36
23 50
23 57
23 58
23 61
23 62
23 64
23 81
23 82
23 85
23 86
23 88
23 102
24 31
24 32
24 33
24 34
24 35
24 50
24 59
24 60
24 61
24 62
24 63
24 83
24 84
24 85
24 86
24 87
24 102
25 38
25 40
25 51
25 66
25 68
25 90
25 92
25 103
26 37
26 39
26 51
26 65
26 67
26 89
26 91
26 103
27 38
27 42
27 46
27 51
27 66
27 70
27 74
27 90
27 94
27 98
27 103
28 37
28 41
28 46
28 51
28 65
28 69
28 74
28 89
28 93
28 98
28 103
29 40
29 44
29 47
29 51
29 68
29 72
29 75
29 92
29 96
29 99
29 103
30 39
30 43
30 47
30 51
30 67
30 71
30 75
30 91
30 95
30 99
30 103
31 42
31 45
31 48
31 51
31 70
31 73
31 76
31 94
31 97
31 100
31 103
32 41
32 45
32 48
32 51
32 69
32 73
32 76
32 93
32 97
32 100
32 103
33 43
33 44
33 46
33 47
33 48
33 51
33 71
33 72
33 74
33 75
33 76
33 95
33 96
33 98
33 99
33 100
33 103
34 39
34 40
34 45
34 47
34 48
34 51
34 67
34 68
34 73
34 75
34 76
34 91
34 92
34 97
34 99
34 100
34 103
35 41
35 42
35 45
35 46
35 48
35 51
35 69
35 70
35 73
35 74
35 76
35 93
35 94
35 97
35 98
35 100
35 103
36 43
36 44
36 45
36 46
36 47
36 51
36 71
36 72
36 73
36 74
36 75
36 95
36 96
36 97
36 98
36 99
36 103
37 49
37 52
37 78
37 80
37 101
37 104
38 49
38 52
38 77
38 79
38 101
38 104
39 49
39 52
39 78
39 82
39 86
39 101
39 104
40 49
40 52
40 77
40 81
40 86
40 101
40 104
41 49
41 52
41 80
41 84
41 87
41 101
41 104
42 49
42 52
42 79
42 83
42 87
42 101
42 104
43 49
43 52
43 82
43 85
43 88
43 101
43 104
44 49
44 52
44 81
44 85
44 88
44 101
44 104
45 49
45 52
45 83
45 84
45 86
45 87
45 88
45 101
45 104
46 49
46 52
46 79
46 80
46 85
46 87
46 88
46 101
46 104
47 49
47 52
47 81
47 82
47 85
47 86
47 88
47 101
47 104
48 49
48 52
48 83
48 84
48 85
48 86
48 87
48 101
48 104
49 50
49 51
49 52
49 89
49 90
49 91
49 92
49 93
49 94
49 95
49 96
49 97
49 98
49 99
49 100
49 102
49 103
49 104
50 51
50 52
50 65
50 66
50 67
50 68
50 69
50 70
50 71
50 72
50 73
50 74
50 75
50 76
50 101
50 103
50 104
51 52
51 77
51 78
51 79
51 80
51 81
51 82
51 83
51 84
51 85
51 86
51 87
51 88
51 101
51 102
51 104
52 89
52 90
52 91
52 92
52 93
52 94
52 95
52 96
52 97
52 98
52 99
52 100
52 101
52 102
52 103
53 106
53 108
53 118
53 120
53 210
54 105
54 107
54 117
54 119
54 210
55 106
55 110
55 114
55 118
55 122
55 126
55 210
56 105
56 109
56 114
56 117
56 121
56 126
56 210
57 108
57 112
57 115
57 120
57 124
57 127
57 210
58 107
58 111
58 115
58 119
58 123
58 127
58 210
59 110
59 113
59 116
59 122
59 125
59 128
59 210
60 109
60 113
60 116
60 121
60 125
60 128
60 210
61 111
61 112
61 114
61 115
61 116
61 123
61 124
61 126
61 127
61 128
61 210
62 107
62 108
62 113
62 115
62 116
62 119
62 120
62 125
62 127
62 128
62 210
63 109
63 110
63 113
63 114
63 116
63 121
63 122
63 125
63 126
63 128
63 210
64 111
64 112
64 113
64 114
64 115
64 123
64 124
64 125
64 126
64 127
64 210
65 106
65 108
65 130
65 132
65 154
65 210
66 105
66 107
66 129
66 131
66 154
66 210
67 106
67 110
67 114
67 130
67 134
67 138
67 154
67 210
68 105
68 109
68 114
68 129
68 133
68 138
68 154
68 210
69 108
69 112
69 115
69 132
69 136
69 139
69 154
69 210
70 107
70 111
70 115
70 131
70 135
70 139
70 154
70 210
71 110
71 113
71 116
71 134
71 137
71 140
71 154
71 210
72 109
72 113
72 116
72 133
72 137
72 140
72 154
72 210
73 111
73 112
73 114
73 115
73 116
73 135
73 136
73 138
73 139
73 140
73 154
73 210
74 107
74 108
74 113
74 115
74 116
74 131
74 132
74 137
74 139
74 140
74 154
74 210
75 109
75 110
75 113
75 114
75 116
75 133
75 134
75 137
75 138
75 140
75 154
75 210
76 111
76 112
76 113
76 114
76 115
76 135
76 136
76 137
76 138
76 139
76 154
76 210
77 118
77 120
77 142
77 144
77 155
77 210
78 117
78 119
78 141
78 143
78 155
78 210
79 118
79 122
79 126
79 142
79 146
79 150
79 155
79 210
80 117
80 121
80 126
80 141
80 145
80 150
80 155
80 210
81 120
81 124
81 127
81 144
81 148
81 151
81 155
81 210
82 119
82 123
82 127
82 143
82 147
82 151
82 155
82 210
83 122
83 125
83 128
83 146
83 149
83 152
83 155
83 210
84 121
84 125
84 128
84 145
84 149
84 152
84 155
84 210
85 123
85 124
85 126
85 127
85 128
85 147
85 148
85 150
85 151
85 152
85 155
85 210
86 119
86 120
86 125
86 127
86 128
86 143
86 144
86 149
86 151
86 152
86 155
86 210
87 121
87 122
87 125
87 126
87 128
87 145
87 146
87 149
87 150
87 152
87 155
87 210
88 123
88 124
88 125
88 126
88 127
88 147
88 148
88 149
88 150
88 151
88 155
88 210
89 130
89 132
89 153
89 156
89 210
90 129
90 131
90 153
90 156
90 210
91 130
91 134
91 138
91 153
91 156
91 210
92 129
92 133
92 138
92 153
92 156
92 210
93 132
93 136
93 139
93 153
93 156
93 210
94 131
94 135
94 139
94 153
94 156
94 210
95 134
95 137
95 140
95 153
95 156
95 210
96 133
96 137
96 140
96 153
96 156
96 210
97 135
97 136
97 138
97 139
97 140
97 153
97 156
97 210
98 131
98 132
98 137
98 139
98 140
98 153
98 156
98 210
99 133
99 134
99 137
99 138
99 140
99 153
99 156
99 210
100 135
100 136
100 137
100 138
100 139
100 153
100 156
100 210
101 141
101 142
101 143
101 144
101 145
101 146
101 147
101 148
101 149
101 150
101 151
101 152
101 154
101 155
101 156
101 210
102 117
102 118
102 119
102 120
102 121
102 122
102 123
102 124
102 125
102 126
102 127
102 128
102 153
102 155
102 156
102 210
103 129
103 130
103 131
103 132
103 133
103 134
103 135
103 136
103 137
103 138
103 139
103 140
103 153
103 154
103 156
103 210
104 141
104 142
104 143
104 144
104 145
104 146
104 147
104 148
104 149
104 150
104 151
104 152
104 153
104 154
104 155
104 210
105 158
105 160
105 170
105 172
105 211
106 157
106 159
106 169
106 171
106 211
107 158
107 162
107 166
107 170
107 174
107 178
107 211
108 157
108 161
108 166
108 169
108 173
108 178
108 211
109 160
109 164
109 167
109 172
109 176
109 179
109 211
110 159
110 163
110 167
110 171
110 175
110 179
110 211
111 162
111 165
111 168
111 174
111 177
111 180
111 211
112 161
112 165
112 168
112 173
112 177
112 180
112 211
113 163
113 164
113 166
113 167
113 168
113 175
113 176
113 178
113 179
113 180
113 211
114 159
114 160
114 165
114 167
114 168
114 171
114 172
114 177
114 179
114 180
114 211
115 161
115 162
115 165
115 166
115 168
115 173
115 174
115 177
115 178
115 180
115 211
116 163
116 164
116 165
116 166
116 167
116 175
116 176
116 177
116 178
116 179
116 211
117 158
117 160
117 182
117 184
117 206
117 211
118 157
118 159
118 181
118 183
118 206
118 211
119 158
119 162
119 166
119 182
119 186
119 190
119 206
119 211
120 157
120 161
120 166
120 181
120 185
120 190
120 206
120 211
121 160
121 164
121 167
121 184
121 188
121 191
121 206
121 211
122 159
122 163
122 167
122 183
122 187
122 191
122 206
122 211
123 162
123 165
123 168
123 186
123 189
123 192
123 206
123 211
124 161
124 165
124 168
124 185
124 189
124 192
124 206
124 211
125 163
125 164
125 166
125 167
125 168
125 187
125 188
125 190
125 191
125 192
125 206
125 211
126 159
126 160
126 165
126 167
126 168
126 183
126 184
126 189
126 191
126 192
126 206
126 211
127 161
127 162
127 165
127 166
127 168
127 185
127 186
127 189
127 190
127 192
127 206
127 211
128 163
128 164
128 165
128 166
128 167
128 187
128 188
128 189
128 190
128 191
128 206
128 211
129 170
129 172
129 194
129 196
129 207
129 211
130 169
130 171
130 193
130 195
130 207
130 211
131 170
131 174
131 178
131 194
131 198
131 202
131 207
131 211
132 169
132 173
132 178
132 193
132 197
132 202
132 207
132 211
133 172
133 176
133 179
133 196
133 200
133 203
133 207
133 211
134 171
134 175
134 179
134 195
134 199
134 203
134 207
134 211
135 174
135 177
135 180
135 198
135 201
135 204
135 207
135 211
136 173
136 177
136 180
136 197
136 201
136 204
136 207
136 211
137 175
137 176
137 178
137 179
137 180
137 199
137 200
137 202
137 203
137 204
137 207
137 211
138 171
138 172
138 177
138 179
138 180
138 195
138 196
138 201
138 203
138 204
138 207
138 211
139 173
139 174
139 177
139 178
139 180
139 197
139 198
139 201
139 202
139 204
139 207
139 211
140 175
140 176
140 177
140 178
140 179
140 199
140 200
140 201
140 202
140 203
140 207
140 211
141 182
141 184
141 205
141 208
141 211
142 181
142 183
142 205
142 208
142 211
143 182
143 186
143 190
143 205
143 208
143 211
144 181
144 185
144 190
144 205
144 208
144 211
145 184
145 188
145 191
145 205
145 208
145 211
146 183
146 187
146 191
146 205
146 208
146 211
147 186
147 189
147 192
147 205
147 208
147 211
148 185
148 189
148 192
148 205
148 208
148 211
149 187
149 188
149 190
149 191
149 192
149 205
149 208
149 211
150 183
150 184
150 189
150 191
150 192
150 205
150 208
150 211
151 185
151 186
151 189
151 190
151 192
151 205
151 208
151 211
152 187
152 188
152 189
152 190
152 191
152 205
152 208
152 211
153 193
153 194
153 195
153 196
153 197
153 198
153 199
153 200
153 201
153 202
153 203
153 204
153 206
153 207
153 208
153 211
154 169
154 170
154 171
154 172
154 173
154 174
154 175
154 176
154 177
154 178
154 179
154 180
154 205
154 207
154 208
154 211
155 181
155 182
155 183
155 184
155 185
155 186
155 187
155 188
155 189
155 190
155 191
155 192
155 205
155 206
155 208
155 211
156 193
156 194
156 195
156 196
156 197
156 198
156 199
156 200
156 201
156 202
156 203
156 204
156 205
156 206
156 207
156 211
157 209
157 212
158 209
158 212
159 209
159 212
160 209
160 212
161 209
161 212
162 209
162 212
163 209
163 212
164 209
164 212
165 209
165 212
166 209
166 212
167 209
167 212
168 209
168 212
169 209
169 212
170 209
170 212
171 209
171 212
172 209
172 212
173 209
173 212
174 209
174 212
175 209
175 212
176 209
176 212
177 209
177 212
178 209
178 212
179 209
179 212
180 209
180 212
181 209
181 212
182 209
182 212
183 209
183 212
184 209
184 212
185 209
185 212
186 209
186 212
187 209
187 212
188 209
188 212
189 209
189 212
190 209
190 212
191 209
191 212
192 209
192 212
193 209
193 212
194 209
194 212
195 209
195 212
196 209
196 212
197 209
197 212
198 209
198 212
199 209
199 212
200 209
200 212
201 209
201 212
202 209
202 212
203 209
203 212
204 209
204 212
205 209
205 212
206 209
206 212
207 209
207 212
208 209
208 212
209 210
209 211
209 212
210 211
210 212
211 212
